WARNING: for repeatability, setting FPU to use double precision
============================[ Problem Statistics ]=============================
|                                                                             |
|  Number of variables:            50                                         |
|  Number of clauses:             218                                         |
|  Parse time:                   0.00 s                                       |
|                                                                             |
============================[ Search Statistics ]==============================
| Conflicts |          ORIGINAL         |          LEARNT          | Progress |
|           |    Vars  Clauses Literals |    Limit  Clauses Lit/Cl |          |
===============================================================================
===============================================================================
restarts              : 1
conflicts             : 44             (278481 /sec)
decisions             : 57             (0.00 % random) (360759 /sec)
propagations          : 771            (4879747 /sec)
conflict literals     : 172            (24.89 % deleted)
Memory used           : 20.00 MB
CPU time              : 0.000158 s

SATISFIABLE
